etc/upTests/matrixes10/0016.eprime.solution
language ESSENCE' 1.0
$ minion Nodes: 1
$ minion TotalTime: 0.000808
$ Savile Row TotalTime: 0.999
letting x_SetOccurrence be [[[true, false, false;int(6,7,8)], 
[false, true, false;int(6,7,8)];int(1,2)], 
[[false, true, true;int(6,7,8)], 
[false, false, true;int(6,7,8)];int(1,2)];int(1..2)]
